SECTION Graph
Nodes 218
Edges 217

E 1 2 1
E 1 3 1
E 1 5 1
E 1 9 1
E 2 514 1
E 3 515 1
E 5 133 1
E 9 25 1
E 9 521 1
E 13 269 1
E 13 525 1
E 16 528 1
E 23 279 1
E 25 57 1
E 36 52 1
E 36 100 1
E 39 167 1
E 54 62 1
E 54 118 1
E 57 58 1
E 57 59 1
E 58 62 1
E 59 571 1
E 62 64 1
E 62 190 1
E 64 192 1
E 68 84 1
E 68 100 1
E 75 203 1
E 100 104 1
E 102 104 1
E 102 110 1
E 102 118 1
E 109 110 1
E 109 111 1
E 110 112 1
E 110 238 1
E 111 127 1
E 111 623 1
E 112 368 1
E 133 134 1
E 133 197 1
E 134 150 1
E 138 154 1
E 138 170 1
E 147 403 1
E 154 218 1
E 159 191 1
E 159 671 1
E 162 170 1
E 162 674 1
E 167 175 1
E 175 191 1
E 184 192 1
E 184 696 1
E 188 192 1
E 188 444 1
E 190 702 1
E 191 192 1
E 192 256 1
E 197 198 1
E 197 213 1
E 197 229 1
E 198 200 1
E 203 459 1
E 203 715 1
E 213 221 1
E 224 256 1
E 224 480 1
E 229 741 1
E 238 494 1
E 241 243 1
E 241 497 1
E 249 505 1
E 249 761 1
E 258 260 1
E 258 262 1
E 262 774 1
E 269 271 1
E 269 301 1
E 269 397 1
E 271 287 1
E 275 279 1
E 275 403 1
E 279 287 1
E 283 284 1
E 283 287 1
E 284 316 1
E 299 811 1
E 306 818 1
E 316 380 1
E 322 330 1
E 322 450 1
E 327 359 1
E 327 839 1
E 330 334 1
E 330 842 1
E 334 350 1
E 337 369 1
E 350 478 1
E 353 369 1
E 353 865 1
E 359 375 1
E 359 487 1
E 397 461 1
E 410 922 1
E 417 421 1
E 417 929 1
E 421 437 1
E 424 488 1
E 437 501 1
E 461 973 1
E 468 472 1
E 468 500 1
E 472 480 1
E 478 480 1
E 487 488 1
E 497 501 1
E 501 509 1
E 505 509 1
E 514 530 1
E 514 578 1
E 515 516 1
E 515 519 1
E 515 547 1
E 516 644 1
E 519 775 1
E 521 525 1
E 528 560 1
E 529 530 1
E 529 657 1
E 547 675 1
E 552 560 1
E 555 556 1
E 555 811 1
E 556 560 1
E 556 620 1
E 560 816 1
E 563 571 1
E 563 627 1
E 565 821 1
E 588 604 1
E 588 844 1
E 597 599 1
E 597 853 1
E 599 727 1
E 604 608 1
E 617 745 1
E 620 748 1
E 634 762 1
E 644 652 1
E 644 660 1
E 644 676 1
E 652 908 1
E 657 665 1
E 660 668 1
E 665 921 1
E 674 676 1
E 675 691 1
E 691 947 1
E 696 760 1
E 702 958 1
E 715 747 1
E 718 974 1
E 745 761 1
E 747 748 1
E 748 1004 1
E 761 762 1
E 773 775 1
E 773 789 1
E 774 902 1
E 775 776 1
E 775 839 1
E 775 903 1
E 776 792 1
E 789 821 1
E 789 853 1
E 792 824 1
E 798 926 1
E 801 803 1
E 801 817 1
E 801 865 1
E 801 929 1
E 803 811 1
E 810 874 1
E 816 832 1
E 817 818 1
E 824 832 1
E 838 840 1
E 838 870 1
E 839 840 1
E 841 842 1
E 841 857 1
E 842 844 1
E 842 874 1
E 857 859 1
E 857 861 1
E 861 893 1
E 868 996 1
E 893 1021 1
E 901 902 1
E 901 903 1
E 908 912 1
E 921 922 1
E 926 958 1
E 941 957 1
E 957 958 1
E 961 977 1
E 973 974 1
E 977 978 1
E 978 980 1
E 978 982 1
E 978 1010 1
E 996 1004 1
E 996 1012 1
E 1010 1012 1
E 1021 1023 1
END
SECTION Terminals
T 1
T 16
T 23
T 25
T 39
T 52
T 57
T 62
T 75
T 84
T 100
T 102
T 109
T 110
T 118
T 127
T 133
T 138
T 147
T 150
T 162
T 170
T 175
T 191
T 192
T 197
T 200
T 203
T 218
T 221
T 241
T 243
T 256
T 260
T 262
T 269
T 275
T 284
T 287
T 299
T 301
T 306
T 327
T 330
T 337
T 350
T 353
T 368
T 375
T 380
T 397
T 403
T 410
T 417
T 424
T 437
T 444
T 450
T 459
T 472
T 480
T 487
T 494
T 500
T 501
T 505
T 514
T 515
T 521
T 525
T 530
T 552
T 556
T 560
T 565
T 571
T 578
T 588
T 597
T 608
T 617
T 623
T 627
T 634
T 644
T 657
T 668
T 671
T 674
T 675
T 696
T 702
T 715
T 718
T 727
T 741
T 745
T 748
T 760
T 761
T 775
T 789
T 792
T 798
T 801
T 810
T 811
T 817
T 824
T 832
T 839
T 840
T 842
T 857
T 859
T 868
T 870
T 893
T 902
T 903
T 908
T 912
T 921
T 941
T 947
T 958
T 961
T 973
T 978
T 980
T 982
T 996
T 1004
T 1010
T 1023
END
SECTION Cost
217
END
